c This is an instance of the exact track of PACE 2020 Challenge, see https://pacechallenge.org/2020/ 
c TYPE: biology 
c ORIGIN: ginsim.org/models_repository 
c DESCRIPTION: nan 
p tdp 23 24
1 2
2 19
3 16
4 13
5 3
6 15
7 13
8 18
9 4
9 22
10 15
11 21
12 2
13 2
14 9
15 16
16 9
17 2
18 20
18 11
19 18
20 21
22 23
23 13
